39
75
59	1
58	6
57	7
56	3
55	2
54	2
52	2
50	2
49	2
48	4
47	5
46	3
45	2
43	1
42	2
41	1
40	2
38	2
37	2
36	3
35	3
34	2
33	2
32	1
31	2
29	2
28	5
27	2
26	1
25	1
24	2
23	6
22	3
21	1
20	1
19	4
18	6
17	1
16	1
